experiment/data/hgs-res/Vrp-Set-A-n33/Vrp-Set-A-n33-hgs/0.hgs1.vrp
NAME : 0
COMMENT : CVRP Instance
TYPE : CVRP
DIMENSION : 33
EDGE_WEIGHT_TYPE : EUC_2D
CAPACITY : 100
NODE_COORD_SECTION
1	42.0	68.0
2	77.0	97.0
3	28.0	64.0
4	77.0	39.0
5	32.0	33.0
6	32.0	8.0
7	42.0	92.0
8	8.0	3.0
9	7.0	14.0
10	82.0	17.0
11	48.0	13.0
12	53.0	82.0
13	39.0	27.0
14	7.0	24.0
15	67.0	98.0
16	54.0	52.0
17	72.0	43.0
18	73.0	3.0
19	59.0	77.0
20	58.0	97.0
21	23.0	43.0
22	68.0	98.0
23	47.0	62.0
24	52.0	72.0
25	32.0	88.0
26	39.0	7.0
27	17.0	8.0
28	38.0	7.0
29	58.0	74.0
30	82.0	67.0
31	42.0	7.0
32	68.0	82.0
33	7.0	48.0
DEMAND_SECTION
1	0
2	5
3	23
4	14
5	13
6	8
7	18
8	19
9	10
10	18
11	20
12	5
13	9
14	23
15	9
16	18
17	10
18	24
19	13
20	14
21	8
22	10
23	19
24	14
25	13
26	14
27	2
28	23
29	15
30	8
31	20
32	24
33	3
DEPOT_SECTION
1
-1
EOF
