experiment/data/hgs-res/Vrp-Set-A-n33/Vrp-Set-A-n33-hgs/0.hgs1.tour
Route #1: 2 32 13 8 7 26 5 12
Route #2: 20 4 27 25 30 10
Route #3: 29 16 3 9 17 15
Route #4: 23 18 28 22
Route #5: 24 6 19 14 21 1 31 11
Cost 662.11
